120 150

59
59
44
50
56
59
59
54
56
54
51
54
48
56
48
54
53
50
55
50
48
54
54
49
56
51
56
52
54
40
47
55
50
47
48
58
50
59
41
53
42
40
53
59
46
54
52
44
47
41
59
56
48
51
52
53
49
43
54
44
51
58
51
54
51
50
56
41
55
55
50
40
48
60
53
42
56
59
47
50
51
58
40
46
56
41
52
51
52
51
59
55
41
42
41
45
53
44
44
52
55
48
43
42
52
45
59
45
59
45
45
51
52
59
47
60
47
60
50
59